0 1 4
0 2 2
0 3 3
0 4 5
0 5 5
0 6 1
0 7 5
0 8 4
0 9 4
1 2 5
1 3 3
1 4 5
1 5 5
1 6 1
1 7 1
1 8 3
1 9 5
2 3 4
2 4 1
2 5 2
2 6 5
2 7 3
2 8 4
2 9 4
3 4 4
3 5 3
3 6 5
3 7 2
3 8 2
3 9 3
4 5 3
4 6 3
4 7 1
4 8 3
4 9 5
5 6 1
5 7 4
5 8 1
5 9 2
6 7 1
6 8 2
6 9 4
7 8 1
7 9 2
8 9 5
